(set-logic BV) (define-fun origCir ((n376 Bool) (i_17 Bool) (n373 Bool) (n371 Bool) (n378 Bool)) Bool (not (and (and (xor n373 n371) (and i_17 n376)) n378))) (synth-fun skel ((n376 Bool) (i_17 Bool) (n373 Bool) (n371 Bool) (n378 Bool)) Bool) (declare-var n376 Bool) (declare-var i_17 Bool) (declare-var n373 Bool) (declare-var n371 Bool) (declare-var n378 Bool) (constraint (= (origCir n376 i_17 n373 n371 n378) (skel n376 i_17 n373 n371 n378))) (check-synth)
